p tw 30 44
1 2
1 6
6 7
6 11
11 12
11 16
16 17
16 21
21 22
21 26
26 27
2 3
2 7
7 8
7 12
12 13
12 17
17 18
17 22
22 23
22 27
27 28
3 4
8 9
8 13
13 14
13 18
18 19
18 23
23 28
28 29
4 5
4 9
9 10
14 15
14 19
19 20
19 24
24 25
24 29
29 30
5 10
10 15
25 30
